certificates/rado_a31_c26_N201.cnf
c Rad2 upper bound instance: x1 + 31*x2 - x3 = 26, interval [1,201]
p cnf 201 1442
1 6 0
-1 -6 0
1 2 37 0
-1 -2 -37 0
1 3 68 0
-1 -3 -68 0
1 4 99 0
-1 -4 -99 0
1 5 130 0
-1 -5 -130 0
1 6 161 0
-1 -6 -161 0
1 7 192 0
-1 -7 -192 0
1 2 7 0
-1 -2 -7 0
2 38 0
-2 -38 0
2 3 69 0
-2 -3 -69 0
2 4 100 0
-2 -4 -100 0
2 5 131 0
-2 -5 -131 0
2 6 162 0
-2 -6 -162 0
2 7 193 0
-2 -7 -193 0
1 3 8 0
-1 -3 -8 0
2 3 39 0
-2 -3 -39 0
3 70 0
-3 -70 0
3 4 101 0
-3 -4 -101 0
3 5 132 0
-3 -5 -132 0
3 6 163 0
-3 -6 -163 0
3 7 194 0
-3 -7 -194 0
1 4 9 0
-1 -4 -9 0
2 4 40 0
-2 -4 -40 0
3 4 71 0
-3 -4 -71 0
4 102 0
-4 -102 0
4 5 133 0
-4 -5 -133 0
4 6 164 0
-4 -6 -164 0
4 7 195 0
-4 -7 -195 0
1 5 10 0
-1 -5 -10 0
2 5 41 0
-2 -5 -41 0
3 5 72 0
-3 -5 -72 0
4 5 103 0
-4 -5 -103 0
5 134 0
-5 -134 0
5 6 165 0
-5 -6 -165 0
5 7 196 0
-5 -7 -196 0
1 6 11 0
-1 -6 -11 0
2 6 42 0
-2 -6 -42 0
3 6 73 0
-3 -6 -73 0
4 6 104 0
-4 -6 -104 0
5 6 135 0
-5 -6 -135 0
6 166 0
-6 -166 0
6 7 197 0
-6 -7 -197 0
1 7 12 0
-1 -7 -12 0
2 7 43 0
-2 -7 -43 0
3 7 74 0
-3 -7 -74 0
4 7 105 0
-4 -7 -105 0
5 7 136 0
-5 -7 -136 0
6 7 167 0
-6 -7 -167 0
7 198 0
-7 -198 0
1 8 13 0
-1 -8 -13 0
2 8 44 0
-2 -8 -44 0
3 8 75 0
-3 -8 -75 0
4 8 106 0
-4 -8 -106 0
5 8 137 0
-5 -8 -137 0
6 8 168 0
-6 -8 -168 0
7 8 199 0
-7 -8 -199 0
1 9 14 0
-1 -9 -14 0
2 9 45 0
-2 -9 -45 0
3 9 76 0
-3 -9 -76 0
4 9 107 0
-4 -9 -107 0
5 9 138 0
-5 -9 -138 0
6 9 169 0
-6 -9 -169 0
7 9 200 0
-7 -9 -200 0
1 10 15 0
-1 -10 -15 0
2 10 46 0
-2 -10 -46 0
3 10 77 0
-3 -10 -77 0
4 10 108 0
-4 -10 -108 0
5 10 139 0
-5 -10 -139 0
6 10 170 0
-6 -10 -170 0
7 10 201 0
-7 -10 -201 0
1 11 16 0
-1 -11 -16 0
2 11 47 0
-2 -11 -47 0
3 11 78 0
-3 -11 -78 0
4 11 109 0
-4 -11 -109 0
5 11 140 0
-5 -11 -140 0
6 11 171 0
-6 -11 -171 0
1 12 17 0
-1 -12 -17 0
2 12 48 0
-2 -12 -48 0
3 12 79 0
-3 -12 -79 0
4 12 110 0
-4 -12 -110 0
5 12 141 0
-5 -12 -141 0
6 12 172 0
-6 -12 -172 0
1 13 18 0
-1 -13 -18 0
2 13 49 0
-2 -13 -49 0
3 13 80 0
-3 -13 -80 0
4 13 111 0
-4 -13 -111 0
5 13 142 0
-5 -13 -142 0
6 13 173 0
-6 -13 -173 0
1 14 19 0
-1 -14 -19 0
2 14 50 0
-2 -14 -50 0
3 14 81 0
-3 -14 -81 0
4 14 112 0
-4 -14 -112 0
5 14 143 0
-5 -14 -143 0
6 14 174 0
-6 -14 -174 0
1 15 20 0
-1 -15 -20 0
2 15 51 0
-2 -15 -51 0
3 15 82 0
-3 -15 -82 0
4 15 113 0
-4 -15 -113 0
5 15 144 0
-5 -15 -144 0
6 15 175 0
-6 -15 -175 0
1 16 21 0
-1 -16 -21 0
2 16 52 0
-2 -16 -52 0
3 16 83 0
-3 -16 -83 0
4 16 114 0
-4 -16 -114 0
5 16 145 0
-5 -16 -145 0
6 16 176 0
-6 -16 -176 0
1 17 22 0
-1 -17 -22 0
2 17 53 0
-2 -17 -53 0
3 17 84 0
-3 -17 -84 0
4 17 115 0
-4 -17 -115 0
5 17 146 0
-5 -17 -146 0
6 17 177 0
-6 -17 -177 0
1 18 23 0
-1 -18 -23 0
2 18 54 0
-2 -18 -54 0
3 18 85 0
-3 -18 -85 0
4 18 116 0
-4 -18 -116 0
5 18 147 0
-5 -18 -147 0
6 18 178 0
-6 -18 -178 0
1 19 24 0
-1 -19 -24 0
2 19 55 0
-2 -19 -55 0
3 19 86 0
-3 -19 -86 0
4 19 117 0
-4 -19 -117 0
5 19 148 0
-5 -19 -148 0
6 19 179 0
-6 -19 -179 0
1 20 25 0
-1 -20 -25 0
2 20 56 0
-2 -20 -56 0
3 20 87 0
-3 -20 -87 0
4 20 118 0
-4 -20 -118 0
5 20 149 0
-5 -20 -149 0
6 20 180 0
-6 -20 -180 0
1 21 26 0
-1 -21 -26 0
2 21 57 0
-2 -21 -57 0
3 21 88 0
-3 -21 -88 0
4 21 119 0
-4 -21 -119 0
5 21 150 0
-5 -21 -150 0
6 21 181 0
-6 -21 -181 0
1 22 27 0
-1 -22 -27 0
2 22 58 0
-2 -22 -58 0
3 22 89 0
-3 -22 -89 0
4 22 120 0
-4 -22 -120 0
5 22 151 0
-5 -22 -151 0
6 22 182 0
-6 -22 -182 0
1 23 28 0
-1 -23 -28 0
2 23 59 0
-2 -23 -59 0
3 23 90 0
-3 -23 -90 0
4 23 121 0
-4 -23 -121 0
5 23 152 0
-5 -23 -152 0
6 23 183 0
-6 -23 -183 0
1 24 29 0
-1 -24 -29 0
2 24 60 0
-2 -24 -60 0
3 24 91 0
-3 -24 -91 0
4 24 122 0
-4 -24 -122 0
5 24 153 0
-5 -24 -153 0
6 24 184 0
-6 -24 -184 0
1 25 30 0
-1 -25 -30 0
2 25 61 0
-2 -25 -61 0
3 25 92 0
-3 -25 -92 0
4 25 123 0
-4 -25 -123 0
5 25 154 0
-5 -25 -154 0
6 25 185 0
-6 -25 -185 0
1 26 31 0
-1 -26 -31 0
2 26 62 0
-2 -26 -62 0
3 26 93 0
-3 -26 -93 0
4 26 124 0
-4 -26 -124 0
5 26 155 0
-5 -26 -155 0
6 26 186 0
-6 -26 -186 0
1 27 32 0
-1 -27 -32 0
2 27 63 0
-2 -27 -63 0
3 27 94 0
-3 -27 -94 0
4 27 125 0
-4 -27 -125 0
5 27 156 0
-5 -27 -156 0
6 27 187 0
-6 -27 -187 0
1 28 33 0
-1 -28 -33 0
2 28 64 0
-2 -28 -64 0
3 28 95 0
-3 -28 -95 0
4 28 126 0
-4 -28 -126 0
5 28 157 0
-5 -28 -157 0
6 28 188 0
-6 -28 -188 0
1 29 34 0
-1 -29 -34 0
2 29 65 0
-2 -29 -65 0
3 29 96 0
-3 -29 -96 0
4 29 127 0
-4 -29 -127 0
5 29 158 0
-5 -29 -158 0
6 29 189 0
-6 -29 -189 0
1 30 35 0
-1 -30 -35 0
2 30 66 0
-2 -30 -66 0
3 30 97 0
-3 -30 -97 0
4 30 128 0
-4 -30 -128 0
5 30 159 0
-5 -30 -159 0
6 30 190 0
-6 -30 -190 0
1 31 36 0
-1 -31 -36 0
2 31 67 0
-2 -31 -67 0
3 31 98 0
-3 -31 -98 0
4 31 129 0
-4 -31 -129 0
5 31 160 0
-5 -31 -160 0
6 31 191 0
-6 -31 -191 0
1 32 37 0
-1 -32 -37 0
2 32 68 0
-2 -32 -68 0
3 32 99 0
-3 -32 -99 0
4 32 130 0
-4 -32 -130 0
5 32 161 0
-5 -32 -161 0
6 32 192 0
-6 -32 -192 0
1 33 38 0
-1 -33 -38 0
2 33 69 0
-2 -33 -69 0
3 33 100 0
-3 -33 -100 0
4 33 131 0
-4 -33 -131 0
5 33 162 0
-5 -33 -162 0
6 33 193 0
-6 -33 -193 0
1 34 39 0
-1 -34 -39 0
2 34 70 0
-2 -34 -70 0
3 34 101 0
-3 -34 -101 0
4 34 132 0
-4 -34 -132 0
5 34 163 0
-5 -34 -163 0
6 34 194 0
-6 -34 -194 0
1 35 40 0
-1 -35 -40 0
2 35 71 0
-2 -35 -71 0
3 35 102 0
-3 -35 -102 0
4 35 133 0
-4 -35 -133 0
5 35 164 0
-5 -35 -164 0
6 35 195 0
-6 -35 -195 0
1 36 41 0
-1 -36 -41 0
2 36 72 0
-2 -36 -72 0
3 36 103 0
-3 -36 -103 0
4 36 134 0
-4 -36 -134 0
5 36 165 0
-5 -36 -165 0
6 36 196 0
-6 -36 -196 0
1 37 42 0
-1 -37 -42 0
2 37 73 0
-2 -37 -73 0
3 37 104 0
-3 -37 -104 0
4 37 135 0
-4 -37 -135 0
5 37 166 0
-5 -37 -166 0
6 37 197 0
-6 -37 -197 0
1 38 43 0
-1 -38 -43 0
2 38 74 0
-2 -38 -74 0
3 38 105 0
-3 -38 -105 0
4 38 136 0
-4 -38 -136 0
5 38 167 0
-5 -38 -167 0
6 38 198 0
-6 -38 -198 0
1 39 44 0
-1 -39 -44 0
2 39 75 0
-2 -39 -75 0
3 39 106 0
-3 -39 -106 0
4 39 137 0
-4 -39 -137 0
5 39 168 0
-5 -39 -168 0
6 39 199 0
-6 -39 -199 0
1 40 45 0
-1 -40 -45 0
2 40 76 0
-2 -40 -76 0
3 40 107 0
-3 -40 -107 0
4 40 138 0
-4 -40 -138 0
5 40 169 0
-5 -40 -169 0
6 40 200 0
-6 -40 -200 0
1 41 46 0
-1 -41 -46 0
2 41 77 0
-2 -41 -77 0
3 41 108 0
-3 -41 -108 0
4 41 139 0
-4 -41 -139 0
5 41 170 0
-5 -41 -170 0
6 41 201 0
-6 -41 -201 0
1 42 47 0
-1 -42 -47 0
2 42 78 0
-2 -42 -78 0
3 42 109 0
-3 -42 -109 0
4 42 140 0
-4 -42 -140 0
5 42 171 0
-5 -42 -171 0
1 43 48 0
-1 -43 -48 0
2 43 79 0
-2 -43 -79 0
3 43 110 0
-3 -43 -110 0
4 43 141 0
-4 -43 -141 0
5 43 172 0
-5 -43 -172 0
1 44 49 0
-1 -44 -49 0
2 44 80 0
-2 -44 -80 0
3 44 111 0
-3 -44 -111 0
4 44 142 0
-4 -44 -142 0
5 44 173 0
-5 -44 -173 0
1 45 50 0
-1 -45 -50 0
2 45 81 0
-2 -45 -81 0
3 45 112 0
-3 -45 -112 0
4 45 143 0
-4 -45 -143 0
5 45 174 0
-5 -45 -174 0
1 46 51 0
-1 -46 -51 0
2 46 82 0
-2 -46 -82 0
3 46 113 0
-3 -46 -113 0
4 46 144 0
-4 -46 -144 0
5 46 175 0
-5 -46 -175 0
1 47 52 0
-1 -47 -52 0
2 47 83 0
-2 -47 -83 0
3 47 114 0
-3 -47 -114 0
4 47 145 0
-4 -47 -145 0
5 47 176 0
-5 -47 -176 0
1 48 53 0
-1 -48 -53 0
2 48 84 0
-2 -48 -84 0
3 48 115 0
-3 -48 -115 0
4 48 146 0
-4 -48 -146 0
5 48 177 0
-5 -48 -177 0
1 49 54 0
-1 -49 -54 0
2 49 85 0
-2 -49 -85 0
3 49 116 0
-3 -49 -116 0
4 49 147 0
-4 -49 -147 0
5 49 178 0
-5 -49 -178 0
1 50 55 0
-1 -50 -55 0
2 50 86 0
-2 -50 -86 0
3 50 117 0
-3 -50 -117 0
4 50 148 0
-4 -50 -148 0
5 50 179 0
-5 -50 -179 0
1 51 56 0
-1 -51 -56 0
2 51 87 0
-2 -51 -87 0
3 51 118 0
-3 -51 -118 0
4 51 149 0
-4 -51 -149 0
5 51 180 0
-5 -51 -180 0
1 52 57 0
-1 -52 -57 0
2 52 88 0
-2 -52 -88 0
3 52 119 0
-3 -52 -119 0
4 52 150 0
-4 -52 -150 0
5 52 181 0
-5 -52 -181 0
1 53 58 0
-1 -53 -58 0
2 53 89 0
-2 -53 -89 0
3 53 120 0
-3 -53 -120 0
4 53 151 0
-4 -53 -151 0
5 53 182 0
-5 -53 -182 0
1 54 59 0
-1 -54 -59 0
2 54 90 0
-2 -54 -90 0
3 54 121 0
-3 -54 -121 0
4 54 152 0
-4 -54 -152 0
5 54 183 0
-5 -54 -183 0
1 55 60 0
-1 -55 -60 0
2 55 91 0
-2 -55 -91 0
3 55 122 0
-3 -55 -122 0
4 55 153 0
-4 -55 -153 0
5 55 184 0
-5 -55 -184 0
1 56 61 0
-1 -56 -61 0
2 56 92 0
-2 -56 -92 0
3 56 123 0
-3 -56 -123 0
4 56 154 0
-4 -56 -154 0
5 56 185 0
-5 -56 -185 0
1 57 62 0
-1 -57 -62 0
2 57 93 0
-2 -57 -93 0
3 57 124 0
-3 -57 -124 0
4 57 155 0
-4 -57 -155 0
5 57 186 0
-5 -57 -186 0
1 58 63 0
-1 -58 -63 0
2 58 94 0
-2 -58 -94 0
3 58 125 0
-3 -58 -125 0
4 58 156 0
-4 -58 -156 0
5 58 187 0
-5 -58 -187 0
1 59 64 0
-1 -59 -64 0
2 59 95 0
-2 -59 -95 0
3 59 126 0
-3 -59 -126 0
4 59 157 0
-4 -59 -157 0
5 59 188 0
-5 -59 -188 0
1 60 65 0
-1 -60 -65 0
2 60 96 0
-2 -60 -96 0
3 60 127 0
-3 -60 -127 0
4 60 158 0
-4 -60 -158 0
5 60 189 0
-5 -60 -189 0
1 61 66 0
-1 -61 -66 0
2 61 97 0
-2 -61 -97 0
3 61 128 0
-3 -61 -128 0
4 61 159 0
-4 -61 -159 0
5 61 190 0
-5 -61 -190 0
1 62 67 0
-1 -62 -67 0
2 62 98 0
-2 -62 -98 0
3 62 129 0
-3 -62 -129 0
4 62 160 0
-4 -62 -160 0
5 62 191 0
-5 -62 -191 0
1 63 68 0
-1 -63 -68 0
2 63 99 0
-2 -63 -99 0
3 63 130 0
-3 -63 -130 0
4 63 161 0
-4 -63 -161 0
5 63 192 0
-5 -63 -192 0
1 64 69 0
-1 -64 -69 0
2 64 100 0
-2 -64 -100 0
3 64 131 0
-3 -64 -131 0
4 64 162 0
-4 -64 -162 0
5 64 193 0
-5 -64 -193 0
1 65 70 0
-1 -65 -70 0
2 65 101 0
-2 -65 -101 0
3 65 132 0
-3 -65 -132 0
4 65 163 0
-4 -65 -163 0
5 65 194 0
-5 -65 -194 0
1 66 71 0
-1 -66 -71 0
2 66 102 0
-2 -66 -102 0
3 66 133 0
-3 -66 -133 0
4 66 164 0
-4 -66 -164 0
5 66 195 0
-5 -66 -195 0
1 67 72 0
-1 -67 -72 0
2 67 103 0
-2 -67 -103 0
3 67 134 0
-3 -67 -134 0
4 67 165 0
-4 -67 -165 0
5 67 196 0
-5 -67 -196 0
1 68 73 0
-1 -68 -73 0
2 68 104 0
-2 -68 -104 0
3 68 135 0
-3 -68 -135 0
4 68 166 0
-4 -68 -166 0
5 68 197 0
-5 -68 -197 0
1 69 74 0
-1 -69 -74 0
2 69 105 0
-2 -69 -105 0
3 69 136 0
-3 -69 -136 0
4 69 167 0
-4 -69 -167 0
5 69 198 0
-5 -69 -198 0
1 70 75 0
-1 -70 -75 0
2 70 106 0
-2 -70 -106 0
3 70 137 0
-3 -70 -137 0
4 70 168 0
-4 -70 -168 0
5 70 199 0
-5 -70 -199 0
1 71 76 0
-1 -71 -76 0
2 71 107 0
-2 -71 -107 0
3 71 138 0
-3 -71 -138 0
4 71 169 0
-4 -71 -169 0
5 71 200 0
-5 -71 -200 0
1 72 77 0
-1 -72 -77 0
2 72 108 0
-2 -72 -108 0
3 72 139 0
-3 -72 -139 0
4 72 170 0
-4 -72 -170 0
5 72 201 0
-5 -72 -201 0
1 73 78 0
-1 -73 -78 0
2 73 109 0
-2 -73 -109 0
3 73 140 0
-3 -73 -140 0
4 73 171 0
-4 -73 -171 0
1 74 79 0
-1 -74 -79 0
2 74 110 0
-2 -74 -110 0
3 74 141 0
-3 -74 -141 0
4 74 172 0
-4 -74 -172 0
1 75 80 0
-1 -75 -80 0
2 75 111 0
-2 -75 -111 0
3 75 142 0
-3 -75 -142 0
4 75 173 0
-4 -75 -173 0
1 76 81 0
-1 -76 -81 0
2 76 112 0
-2 -76 -112 0
3 76 143 0
-3 -76 -143 0
4 76 174 0
-4 -76 -174 0
1 77 82 0
-1 -77 -82 0
2 77 113 0
-2 -77 -113 0
3 77 144 0
-3 -77 -144 0
4 77 175 0
-4 -77 -175 0
1 78 83 0
-1 -78 -83 0
2 78 114 0
-2 -78 -114 0
3 78 145 0
-3 -78 -145 0
4 78 176 0
-4 -78 -176 0
1 79 84 0
-1 -79 -84 0
2 79 115 0
-2 -79 -115 0
3 79 146 0
-3 -79 -146 0
4 79 177 0
-4 -79 -177 0
1 80 85 0
-1 -80 -85 0
2 80 116 0
-2 -80 -116 0
3 80 147 0
-3 -80 -147 0
4 80 178 0
-4 -80 -178 0
1 81 86 0
-1 -81 -86 0
2 81 117 0
-2 -81 -117 0
3 81 148 0
-3 -81 -148 0
4 81 179 0
-4 -81 -179 0
1 82 87 0
-1 -82 -87 0
2 82 118 0
-2 -82 -118 0
3 82 149 0
-3 -82 -149 0
4 82 180 0
-4 -82 -180 0
1 83 88 0
-1 -83 -88 0
2 83 119 0
-2 -83 -119 0
3 83 150 0
-3 -83 -150 0
4 83 181 0
-4 -83 -181 0
1 84 89 0
-1 -84 -89 0
2 84 120 0
-2 -84 -120 0
3 84 151 0
-3 -84 -151 0
4 84 182 0
-4 -84 -182 0
1 85 90 0
-1 -85 -90 0
2 85 121 0
-2 -85 -121 0
3 85 152 0
-3 -85 -152 0
4 85 183 0
-4 -85 -183 0
1 86 91 0
-1 -86 -91 0
2 86 122 0
-2 -86 -122 0
3 86 153 0
-3 -86 -153 0
4 86 184 0
-4 -86 -184 0
1 87 92 0
-1 -87 -92 0
2 87 123 0
-2 -87 -123 0
3 87 154 0
-3 -87 -154 0
4 87 185 0
-4 -87 -185 0
1 88 93 0
-1 -88 -93 0
2 88 124 0
-2 -88 -124 0
3 88 155 0
-3 -88 -155 0
4 88 186 0
-4 -88 -186 0
1 89 94 0
-1 -89 -94 0
2 89 125 0
-2 -89 -125 0
3 89 156 0
-3 -89 -156 0
4 89 187 0
-4 -89 -187 0
1 90 95 0
-1 -90 -95 0
2 90 126 0
-2 -90 -126 0
3 90 157 0
-3 -90 -157 0
4 90 188 0
-4 -90 -188 0
1 91 96 0
-1 -91 -96 0
2 91 127 0
-2 -91 -127 0
3 91 158 0
-3 -91 -158 0
4 91 189 0
-4 -91 -189 0
1 92 97 0
-1 -92 -97 0
2 92 128 0
-2 -92 -128 0
3 92 159 0
-3 -92 -159 0
4 92 190 0
-4 -92 -190 0
1 93 98 0
-1 -93 -98 0
2 93 129 0
-2 -93 -129 0
3 93 160 0
-3 -93 -160 0
4 93 191 0
-4 -93 -191 0
1 94 99 0
-1 -94 -99 0
2 94 130 0
-2 -94 -130 0
3 94 161 0
-3 -94 -161 0
4 94 192 0
-4 -94 -192 0
1 95 100 0
-1 -95 -100 0
2 95 131 0
-2 -95 -131 0
3 95 162 0
-3 -95 -162 0
4 95 193 0
-4 -95 -193 0
1 96 101 0
-1 -96 -101 0
2 96 132 0
-2 -96 -132 0
3 96 163 0
-3 -96 -163 0
4 96 194 0
-4 -96 -194 0
1 97 102 0
-1 -97 -102 0
2 97 133 0
-2 -97 -133 0
3 97 164 0
-3 -97 -164 0
4 97 195 0
-4 -97 -195 0
1 98 103 0
-1 -98 -103 0
2 98 134 0
-2 -98 -134 0
3 98 165 0
-3 -98 -165 0
4 98 196 0
-4 -98 -196 0
1 99 104 0
-1 -99 -104 0
2 99 135 0
-2 -99 -135 0
3 99 166 0
-3 -99 -166 0
4 99 197 0
-4 -99 -197 0
1 100 105 0
-1 -100 -105 0
2 100 136 0
-2 -100 -136 0
3 100 167 0
-3 -100 -167 0
4 100 198 0
-4 -100 -198 0
1 101 106 0
-1 -101 -106 0
2 101 137 0
-2 -101 -137 0
3 101 168 0
-3 -101 -168 0
4 101 199 0
-4 -101 -199 0
1 102 107 0
-1 -102 -107 0
2 102 138 0
-2 -102 -138 0
3 102 169 0
-3 -102 -169 0
4 102 200 0
-4 -102 -200 0
1 103 108 0
-1 -103 -108 0
2 103 139 0
-2 -103 -139 0
3 103 170 0
-3 -103 -170 0
4 103 201 0
-4 -103 -201 0
1 104 109 0
-1 -104 -109 0
2 104 140 0
-2 -104 -140 0
3 104 171 0
-3 -104 -171 0
1 105 110 0
-1 -105 -110 0
2 105 141 0
-2 -105 -141 0
3 105 172 0
-3 -105 -172 0
1 106 111 0
-1 -106 -111 0
2 106 142 0
-2 -106 -142 0
3 106 173 0
-3 -106 -173 0
1 107 112 0
-1 -107 -112 0
2 107 143 0
-2 -107 -143 0
3 107 174 0
-3 -107 -174 0
1 108 113 0
-1 -108 -113 0
2 108 144 0
-2 -108 -144 0
3 108 175 0
-3 -108 -175 0
1 109 114 0
-1 -109 -114 0
2 109 145 0
-2 -109 -145 0
3 109 176 0
-3 -109 -176 0
1 110 115 0
-1 -110 -115 0
2 110 146 0
-2 -110 -146 0
3 110 177 0
-3 -110 -177 0
1 111 116 0
-1 -111 -116 0
2 111 147 0
-2 -111 -147 0
3 111 178 0
-3 -111 -178 0
1 112 117 0
-1 -112 -117 0
2 112 148 0
-2 -112 -148 0
3 112 179 0
-3 -112 -179 0
1 113 118 0
-1 -113 -118 0
2 113 149 0
-2 -113 -149 0
3 113 180 0
-3 -113 -180 0
1 114 119 0
-1 -114 -119 0
2 114 150 0
-2 -114 -150 0
3 114 181 0
-3 -114 -181 0
1 115 120 0
-1 -115 -120 0
2 115 151 0
-2 -115 -151 0
3 115 182 0
-3 -115 -182 0
1 116 121 0
-1 -116 -121 0
2 116 152 0
-2 -116 -152 0
3 116 183 0
-3 -116 -183 0
1 117 122 0
-1 -117 -122 0
2 117 153 0
-2 -117 -153 0
3 117 184 0
-3 -117 -184 0
1 118 123 0
-1 -118 -123 0
2 118 154 0
-2 -118 -154 0
3 118 185 0
-3 -118 -185 0
1 119 124 0
-1 -119 -124 0
2 119 155 0
-2 -119 -155 0
3 119 186 0
-3 -119 -186 0
1 120 125 0
-1 -120 -125 0
2 120 156 0
-2 -120 -156 0
3 120 187 0
-3 -120 -187 0
1 121 126 0
-1 -121 -126 0
2 121 157 0
-2 -121 -157 0
3 121 188 0
-3 -121 -188 0
1 122 127 0
-1 -122 -127 0
2 122 158 0
-2 -122 -158 0
3 122 189 0
-3 -122 -189 0
1 123 128 0
-1 -123 -128 0
2 123 159 0
-2 -123 -159 0
3 123 190 0
-3 -123 -190 0
1 124 129 0
-1 -124 -129 0
2 124 160 0
-2 -124 -160 0
3 124 191 0
-3 -124 -191 0
1 125 130 0
-1 -125 -130 0
2 125 161 0
-2 -125 -161 0
3 125 192 0
-3 -125 -192 0
1 126 131 0
-1 -126 -131 0
2 126 162 0
-2 -126 -162 0
3 126 193 0
-3 -126 -193 0
1 127 132 0
-1 -127 -132 0
2 127 163 0
-2 -127 -163 0
3 127 194 0
-3 -127 -194 0
1 128 133 0
-1 -128 -133 0
2 128 164 0
-2 -128 -164 0
3 128 195 0
-3 -128 -195 0
1 129 134 0
-1 -129 -134 0
2 129 165 0
-2 -129 -165 0
3 129 196 0
-3 -129 -196 0
1 130 135 0
-1 -130 -135 0
2 130 166 0
-2 -130 -166 0
3 130 197 0
-3 -130 -197 0
1 131 136 0
-1 -131 -136 0
2 131 167 0
-2 -131 -167 0
3 131 198 0
-3 -131 -198 0
1 132 137 0
-1 -132 -137 0
2 132 168 0
-2 -132 -168 0
3 132 199 0
-3 -132 -199 0
1 133 138 0
-1 -133 -138 0
2 133 169 0
-2 -133 -169 0
3 133 200 0
-3 -133 -200 0
1 134 139 0
-1 -134 -139 0
2 134 170 0
-2 -134 -170 0
3 134 201 0
-3 -134 -201 0
1 135 140 0
-1 -135 -140 0
2 135 171 0
-2 -135 -171 0
1 136 141 0
-1 -136 -141 0
2 136 172 0
-2 -136 -172 0
1 137 142 0
-1 -137 -142 0
2 137 173 0
-2 -137 -173 0
1 138 143 0
-1 -138 -143 0
2 138 174 0
-2 -138 -174 0
1 139 144 0
-1 -139 -144 0
2 139 175 0
-2 -139 -175 0
1 140 145 0
-1 -140 -145 0
2 140 176 0
-2 -140 -176 0
1 141 146 0
-1 -141 -146 0
2 141 177 0
-2 -141 -177 0
1 142 147 0
-1 -142 -147 0
2 142 178 0
-2 -142 -178 0
1 143 148 0
-1 -143 -148 0
2 143 179 0
-2 -143 -179 0
1 144 149 0
-1 -144 -149 0
2 144 180 0
-2 -144 -180 0
1 145 150 0
-1 -145 -150 0
2 145 181 0
-2 -145 -181 0
1 146 151 0
-1 -146 -151 0
2 146 182 0
-2 -146 -182 0
1 147 152 0
-1 -147 -152 0
2 147 183 0
-2 -147 -183 0
1 148 153 0
-1 -148 -153 0
2 148 184 0
-2 -148 -184 0
1 149 154 0
-1 -149 -154 0
2 149 185 0
-2 -149 -185 0
1 150 155 0
-1 -150 -155 0
2 150 186 0
-2 -150 -186 0
1 151 156 0
-1 -151 -156 0
2 151 187 0
-2 -151 -187 0
1 152 157 0
-1 -152 -157 0
2 152 188 0
-2 -152 -188 0
1 153 158 0
-1 -153 -158 0
2 153 189 0
-2 -153 -189 0
1 154 159 0
-1 -154 -159 0
2 154 190 0
-2 -154 -190 0
1 155 160 0
-1 -155 -160 0
2 155 191 0
-2 -155 -191 0
1 156 161 0
-1 -156 -161 0
2 156 192 0
-2 -156 -192 0
1 157 162 0
-1 -157 -162 0
2 157 193 0
-2 -157 -193 0
1 158 163 0
-1 -158 -163 0
2 158 194 0
-2 -158 -194 0
1 159 164 0
-1 -159 -164 0
2 159 195 0
-2 -159 -195 0
1 160 165 0
-1 -160 -165 0
2 160 196 0
-2 -160 -196 0
1 161 166 0
-1 -161 -166 0
2 161 197 0
-2 -161 -197 0
1 162 167 0
-1 -162 -167 0
2 162 198 0
-2 -162 -198 0
1 163 168 0
-1 -163 -168 0
2 163 199 0
-2 -163 -199 0
1 164 169 0
-1 -164 -169 0
2 164 200 0
-2 -164 -200 0
1 165 170 0
-1 -165 -170 0
2 165 201 0
-2 -165 -201 0
1 166 171 0
-1 -166 -171 0
1 167 172 0
-1 -167 -172 0
1 168 173 0
-1 -168 -173 0
1 169 174 0
-1 -169 -174 0
1 170 175 0
-1 -170 -175 0
1 171 176 0
-1 -171 -176 0
1 172 177 0
-1 -172 -177 0
1 173 178 0
-1 -173 -178 0
1 174 179 0
-1 -174 -179 0
1 175 180 0
-1 -175 -180 0
1 176 181 0
-1 -176 -181 0
1 177 182 0
-1 -177 -182 0
1 178 183 0
-1 -178 -183 0
1 179 184 0
-1 -179 -184 0
1 180 185 0
-1 -180 -185 0
1 181 186 0
-1 -181 -186 0
1 182 187 0
-1 -182 -187 0
1 183 188 0
-1 -183 -188 0
1 184 189 0
-1 -184 -189 0
1 185 190 0
-1 -185 -190 0
1 186 191 0
-1 -186 -191 0
1 187 192 0
-1 -187 -192 0
1 188 193 0
-1 -188 -193 0
1 189 194 0
-1 -189 -194 0
1 190 195 0
-1 -190 -195 0
1 191 196 0
-1 -191 -196 0
1 192 197 0
-1 -192 -197 0
1 193 198 0
-1 -193 -198 0
1 194 199 0
-1 -194 -199 0
1 195 200 0
-1 -195 -200 0
1 196 201 0
-1 -196 -201 0
